instances/knapsack/discrete_knapsack_uncertainty/knapsack_90_10.lp
\ Model knapsack_90_10
\ LP format - for model browsing. Use MPS format to capture full model detail.
\ Signature: 0xc29ff4c0dcb79651
Minimize
  - 62 x[0] - 90 x[1] - 12 x[2] - 64 x[3] - 29 x[4] - 81 x[5] - x[6]
   - 79 x[7] - 78 x[8] - 94 x[9] - 27 x[10] - 91 x[11] - 19 x[12]
   - 50 x[13] - 39 x[14] - 48 x[15] - 74 x[16] - 38 x[17] - 62 x[18]
   - 93 x[19] - 37 x[20] - 83 x[21] - 100 x[22] - 68 x[23] - 73 x[24]
   - 2 x[25] - 44 x[26] - 83 x[27] - 50 x[28] - 80 x[29] - 69 x[30]
   - 68 x[31] - 64 x[32] - 15 x[33] - 43 x[34] - 21 x[35] - 77 x[36]
   - 39 x[37] - 34 x[38] - 51 x[39] - 88 x[40] - 65 x[41] - 69 x[42]
   - 43 x[43] - 54 x[44] - 99 x[45] - 56 x[46] - 96 x[47] - 48 x[48]
   - 57 x[49] - 35 x[50] - 2 x[51] - 31 x[52] - 29 x[53] - 16 x[54]
   - 54 x[55] - 18 x[56] - 40 x[57] - 28 x[58] - 75 x[59] - 72 x[60]
   - 18 x[61] - 53 x[62] - 21 x[63] - 42 x[64] - 33 x[65] - 57 x[66]
   - 61 x[67] - 88 x[68] - 45 x[69] - 5 x[70] - 55 x[71] - 65 x[72]
   - 77 x[73] - 74 x[74] - 2 x[75] - 58 x[76] - 5 x[77] - 96 x[78]
   - 11 x[79] - 95 x[80] - 42 x[81] - 65 x[82] - 14 x[83] - 93 x[84]
   - 56 x[85] - 14 x[86] - 59 x[87] - 60 x[88] - 82 x[89]
Subject To
 primal_upper: 89 x[0] + 54 x[1] + 100 x[2] + 53 x[3] + 70 x[4] + 19 x[5]
   + 47 x[6] + 93 x[7] + 79 x[8] + 4 x[9] + 5 x[10] + x[11] + 82 x[12]
   + 70 x[13] + 26 x[14] + 90 x[15] + 11 x[16] + 26 x[17] + 35 x[18]
   + 60 x[19] + 79 x[20] + 9 x[21] + 66 x[22] + 76 x[23] + 78 x[24]
   + 30 x[25] + 52 x[26] + 33 x[27] + 87 x[28] + 21 x[29] + 11 x[30]
   + 97 x[31] + 61 x[32] + 87 x[33] + 34 x[34] + 15 x[35] + 14 x[36]
   + 2 x[37] + 58 x[38] + 100 x[39] + 81 x[40] + 55 x[41] + 36 x[42]
   + 3 x[43] + 69 x[44] + 48 x[45] + 47 x[46] + 79 x[47] + 21 x[48]
   + 62 x[49] + 8 x[50] + 42 x[51] + 91 x[52] + 10 x[53] + 98 x[54]
   + 53 x[55] + 67 x[56] + 72 x[57] + 34 x[58] + 52 x[59] + 90 x[60]
   + 88 x[61] + 25 x[62] + 8 x[63] + 13 x[64] + 10 x[65] + 18 x[66]
   + 44 x[67] + 10 x[68] + 83 x[69] + 11 x[70] + 91 x[71] + 36 x[72]
   + 69 x[73] + 61 x[74] + 18 x[75] + 12 x[76] + 41 x[77] + 94 x[78]
   + 84 x[79] + 23 x[80] + 79 x[81] + 4 x[82] + 59 x[83] + 71 x[84]
   + 83 x[85] + 77 x[86] + 62 x[87] + 64 x[88] + 5 x[89] + 8.9 r[0]
   + 5.4 r[1] + 10 r[2] + 5.3 r[3] + 7 r[4] + 1.9 r[5] + 4.7 r[6]
   + 9.3 r[7] + 7.9 r[8] + 0.4 r[9] + 0.5 r[10] + 0.1 r[11] + 8.2 r[12]
   + 7 r[13] + 2.6 r[14] + 9 r[15] + 1.1 r[16] + 2.6 r[17] + 3.5 r[18]
   + 6 r[19] + 7.9 r[20] + 0.9 r[21] + 6.6 r[22] + 7.6 r[23] + 7.8 r[24]
   + 3 r[25] + 5.2 r[26] + 3.3 r[27] + 8.7 r[28] + 2.1 r[29] + 1.1 r[30]
   + 9.7 r[31] + 6.1 r[32] + 8.7 r[33] + 3.4 r[34] + 1.5 r[35] + 1.4 r[36]
   + 0.2 r[37] + 5.8 r[38] + 10 r[39] + 8.1 r[40] + 5.5 r[41] + 3.6 r[42]
   + 0.3 r[43] + 6.9 r[44] + 4.8 r[45] + 4.7 r[46] + 7.9 r[47] + 2.1 r[48]
   + 6.2 r[49] + 0.8 r[50] + 4.2 r[51] + 9.1 r[52] + r[53] + 9.8 r[54]
   + 5.3 r[55] + 6.7 r[56] + 7.2 r[57] + 3.4 r[58] + 5.2 r[59] + 9 r[60]
   + 8.8 r[61] + 2.5 r[62] + 0.8 r[63] + 1.3 r[64] + r[65] + 1.8 r[66]
   + 4.4 r[67] + r[68] + 8.3 r[69] + 1.1 r[70] + 9.1 r[71] + 3.6 r[72]
   + 6.9 r[73] + 6.1 r[74] + 1.8 r[75] + 1.2 r[76] + 4.1 r[77] + 9.4 r[78]
   + 8.4 r[79] + 2.3 r[80] + 7.9 r[81] + 0.4 r[82] + 5.9 r[83] + 7.1 r[84]
   + 8.3 r[85] + 7.7 r[86] + 6.2 r[87] + 6.4 r[88] + 0.5 r[89] <= 427
 primal_lower: 1.560500847826209 x[0] + 0.7519619545934632 x[1]
   + 1.699618129741887 x[2] + 1.646457012667369 x[3]
   + 3.832440756736573 x[4] + 1.985211936889716 x[5]
   + 1.207960194421504 x[6] + 2.551118256935523 x[7]
   + 0.0317983013889242 x[8] + 4.73264442720954 x[9]
   + 1.505165976515838 x[10] + 2.64720055551604 x[11]
   + 1.184761163842395 x[12] + 2.504042277461761 x[13]
   + 1.722652516304113 x[14] + 3.940186742169731 x[15]
   + 2.853149400515204 x[16] + 1.717898663665625 x[17]
   + 2.128500912377233 x[18] + 4.714494384828448 x[19]
   + 1.532942250293359 x[20] + 0.3746157627960765 x[21]
   + 3.676576028552662 x[22] + 1.866741040779301 x[23]
   + 2.137212633203362 x[24] + 0.3598774808119579 x[25]
   + 2.208721374250792 x[26] + 1.797879871681758 x[27]
   + 2.968184794894757 x[28] + 1.603425363125308 x[29]
   + 3.334389036072764 x[30] + 0.2536411362808456 x[31]
   + 0.6119686185709134 x[32] + 4.532050244121478 x[33]
   + 0.4088527549897065 x[34] + 3.721722597323708 x[35]
   + 3.470317945553059 x[36] + 0.3573676258027987 x[37]
   + 3.551603858588769 x[38] + 2.439358974548111 x[39]
   + 3.34289921291716 x[40] + 3.601976579579095 x[41]
   + 0.1449967610938016 x[42] + 0.0819447772882204 x[43]
   + 2.77129242913067 x[44] + 0.113782618706972 x[45]
   + 2.889682882876509 x[46] + 0.0143445943689771 x[47]
   + 2.613622408834068 x[48] + 4.434179112798891 x[49]
   + 4.199960198801421 x[50] + 0.1773194820123689 x[51]
   + 4.681876106451512 x[52] + 1.94128201202649 x[53]
   + 4.07093964720515 x[54] + 3.941423550681682 x[55]
   + 4.56318876798359 x[56] + 3.070907581777272 x[57]
   + 1.486123866357719 x[58] + 0.4019769044575744 x[59]
   + 2.113513550865111 x[60] + 0.2453240759492827 x[61]
   + 2.589829790075482 x[62] + 1.378013778429007 x[63]
   + 1.2038076811099 x[64] + 1.770243186953512 x[65]
   + 2.016099253447124 x[66] + 2.599570907200735 x[67]
   + 2.786795769352528 x[68] + 3.540079991154788 x[69]
   + 1.776702431555013 x[70] + 3.012767842702624 x[71]
   + 2.224461176713915 x[72] + 2.91971277916821 x[73]
   + 0.6763477770435365 x[74] + 1.018963561970551 x[75]
   + 2.531246505431509 x[76] + 0.3930598838257651 x[77]
   + 3.873466057575213 x[78] + 2.019000003402125 x[79]
   + 0.8498530625914368 x[80] + 2.51940018246649 x[81]
   + 3.462468690754307 x[82] + 2.651649091486388 x[83]
   + 1.312493186932857 x[84] + 1.233756424349632 x[85]
   + 0.1679039588534099 x[86] + 0.8874355422210725 x[87]
   + 0.2267978774854561 x[88] + 2.987318349882695 x[89] + 10 u[0] + 78 u[1]
   + 36 u[2] + 69 u[3] + 82 u[4] + 52 u[5] + 19 u[6] + 70 u[7] + 87 u[8]
   + 64 u[9] + 58 u[10] + 97 u[11] + 18 u[12] + 94 u[13] + 35 u[14]
   + 23 u[15] + 59 u[16] + 46 u[17] + 75 u[18] + 48 u[19] + 75 u[20]
   + 78 u[21] + 50 u[22] + 69 u[23] + 63 u[24] + 82 u[25] + 60 u[26]
   + 18 u[27] + 16 u[28] + 65 u[29] + 96 u[30] + 58 u[31] + 62 u[32]
   + 19 u[33] + 62 u[34] + 19 u[35] + 70 u[36] + 43 u[37] + 46 u[38]
   + u[39] + 49 u[40] + 64 u[41] + 36 u[42] + 48 u[43] + 41 u[44]
   + 81 u[45] + 8 u[46] + 60 u[47] + 53 u[48] + 10 u[49] + 85 u[50]
   + 2 u[51] + 83 u[52] + 70 u[53] + 47 u[54] + 50 u[55] + 59 u[56]
   + 13 u[57] + 58 u[58] + 52 u[59] + 19 u[60] + 93 u[61] + 30 u[62]
   + 81 u[63] + 70 u[64] + 90 u[65] + 75 u[66] + 17 u[67] + 50 u[68]
   + 56 u[69] + 44 u[70] + 32 u[71] + 8 u[72] + 21 u[73] + 98 u[74]
   + 87 u[75] + 65 u[76] + u[77] + 87 u[78] + 17 u[79] + 80 u[80]
   + 48 u[81] + 25 u[82] + 44 u[83] + 36 u[84] + 44 u[85] + 38 u[86]
   + 6 u[87] + 28 u[88] + 65 u[89] <= 85062
 mccormick1[0]: - u[0] + r[0] <= 0
 mccormick1[1]: - u[1] + r[1] <= 0
 mccormick1[2]: - u[2] + r[2] <= 0
 mccormick1[3]: - u[3] + r[3] <= 0
 mccormick1[4]: - u[4] + r[4] <= 0
 mccormick1[5]: - u[5] + r[5] <= 0
 mccormick1[6]: - u[6] + r[6] <= 0
 mccormick1[7]: - u[7] + r[7] <= 0
 mccormick1[8]: - u[8] + r[8] <= 0
 mccormick1[9]: - u[9] + r[9] <= 0
 mccormick1[10]: - u[10] + r[10] <= 0
 mccormick1[11]: - u[11] + r[11] <= 0
 mccormick1[12]: - u[12] + r[12] <= 0
 mccormick1[13]: - u[13] + r[13] <= 0
 mccormick1[14]: - u[14] + r[14] <= 0
 mccormick1[15]: - u[15] + r[15] <= 0
 mccormick1[16]: - u[16] + r[16] <= 0
 mccormick1[17]: - u[17] + r[17] <= 0
 mccormick1[18]: - u[18] + r[18] <= 0
 mccormick1[19]: - u[19] + r[19] <= 0
 mccormick1[20]: - u[20] + r[20] <= 0
 mccormick1[21]: - u[21] + r[21] <= 0
 mccormick1[22]: - u[22] + r[22] <= 0
 mccormick1[23]: - u[23] + r[23] <= 0
 mccormick1[24]: - u[24] + r[24] <= 0
 mccormick1[25]: - u[25] + r[25] <= 0
 mccormick1[26]: - u[26] + r[26] <= 0
 mccormick1[27]: - u[27] + r[27] <= 0
 mccormick1[28]: - u[28] + r[28] <= 0
 mccormick1[29]: - u[29] + r[29] <= 0
 mccormick1[30]: - u[30] + r[30] <= 0
 mccormick1[31]: - u[31] + r[31] <= 0
 mccormick1[32]: - u[32] + r[32] <= 0
 mccormick1[33]: - u[33] + r[33] <= 0
 mccormick1[34]: - u[34] + r[34] <= 0
 mccormick1[35]: - u[35] + r[35] <= 0
 mccormick1[36]: - u[36] + r[36] <= 0
 mccormick1[37]: - u[37] + r[37] <= 0
 mccormick1[38]: - u[38] + r[38] <= 0
 mccormick1[39]: - u[39] + r[39] <= 0
 mccormick1[40]: - u[40] + r[40] <= 0
 mccormick1[41]: - u[41] + r[41] <= 0
 mccormick1[42]: - u[42] + r[42] <= 0
 mccormick1[43]: - u[43] + r[43] <= 0
 mccormick1[44]: - u[44] + r[44] <= 0
 mccormick1[45]: - u[45] + r[45] <= 0
 mccormick1[46]: - u[46] + r[46] <= 0
 mccormick1[47]: - u[47] + r[47] <= 0
 mccormick1[48]: - u[48] + r[48] <= 0
 mccormick1[49]: - u[49] + r[49] <= 0
 mccormick1[50]: - u[50] + r[50] <= 0
 mccormick1[51]: - u[51] + r[51] <= 0
 mccormick1[52]: - u[52] + r[52] <= 0
 mccormick1[53]: - u[53] + r[53] <= 0
 mccormick1[54]: - u[54] + r[54] <= 0
 mccormick1[55]: - u[55] + r[55] <= 0
 mccormick1[56]: - u[56] + r[56] <= 0
 mccormick1[57]: - u[57] + r[57] <= 0
 mccormick1[58]: - u[58] + r[58] <= 0
 mccormick1[59]: - u[59] + r[59] <= 0
 mccormick1[60]: - u[60] + r[60] <= 0
 mccormick1[61]: - u[61] + r[61] <= 0
 mccormick1[62]: - u[62] + r[62] <= 0
 mccormick1[63]: - u[63] + r[63] <= 0
 mccormick1[64]: - u[64] + r[64] <= 0
 mccormick1[65]: - u[65] + r[65] <= 0
 mccormick1[66]: - u[66] + r[66] <= 0
 mccormick1[67]: - u[67] + r[67] <= 0
 mccormick1[68]: - u[68] + r[68] <= 0
 mccormick1[69]: - u[69] + r[69] <= 0
 mccormick1[70]: - u[70] + r[70] <= 0
 mccormick1[71]: - u[71] + r[71] <= 0
 mccormick1[72]: - u[72] + r[72] <= 0
 mccormick1[73]: - u[73] + r[73] <= 0
 mccormick1[74]: - u[74] + r[74] <= 0
 mccormick1[75]: - u[75] + r[75] <= 0
 mccormick1[76]: - u[76] + r[76] <= 0
 mccormick1[77]: - u[77] + r[77] <= 0
 mccormick1[78]: - u[78] + r[78] <= 0
 mccormick1[79]: - u[79] + r[79] <= 0
 mccormick1[80]: - u[80] + r[80] <= 0
 mccormick1[81]: - u[81] + r[81] <= 0
 mccormick1[82]: - u[82] + r[82] <= 0
 mccormick1[83]: - u[83] + r[83] <= 0
 mccormick1[84]: - u[84] + r[84] <= 0
 mccormick1[85]: - u[85] + r[85] <= 0
 mccormick1[86]: - u[86] + r[86] <= 0
 mccormick1[87]: - u[87] + r[87] <= 0
 mccormick1[88]: - u[88] + r[88] <= 0
 mccormick1[89]: - u[89] + r[89] <= 0
 mccormick2[0]: - x[0] + r[0] <= 0
 mccormick2[1]: - x[1] + r[1] <= 0
 mccormick2[2]: - x[2] + r[2] <= 0
 mccormick2[3]: - x[3] + r[3] <= 0
 mccormick2[4]: - x[4] + r[4] <= 0
 mccormick2[5]: - x[5] + r[5] <= 0
 mccormick2[6]: - x[6] + r[6] <= 0
 mccormick2[7]: - x[7] + r[7] <= 0
 mccormick2[8]: - x[8] + r[8] <= 0
 mccormick2[9]: - x[9] + r[9] <= 0
 mccormick2[10]: - x[10] + r[10] <= 0
 mccormick2[11]: - x[11] + r[11] <= 0
 mccormick2[12]: - x[12] + r[12] <= 0
 mccormick2[13]: - x[13] + r[13] <= 0
 mccormick2[14]: - x[14] + r[14] <= 0
 mccormick2[15]: - x[15] + r[15] <= 0
 mccormick2[16]: - x[16] + r[16] <= 0
 mccormick2[17]: - x[17] + r[17] <= 0
 mccormick2[18]: - x[18] + r[18] <= 0
 mccormick2[19]: - x[19] + r[19] <= 0
 mccormick2[20]: - x[20] + r[20] <= 0
 mccormick2[21]: - x[21] + r[21] <= 0
 mccormick2[22]: - x[22] + r[22] <= 0
 mccormick2[23]: - x[23] + r[23] <= 0
 mccormick2[24]: - x[24] + r[24] <= 0
 mccormick2[25]: - x[25] + r[25] <= 0
 mccormick2[26]: - x[26] + r[26] <= 0
 mccormick2[27]: - x[27] + r[27] <= 0
 mccormick2[28]: - x[28] + r[28] <= 0
 mccormick2[29]: - x[29] + r[29] <= 0
 mccormick2[30]: - x[30] + r[30] <= 0
 mccormick2[31]: - x[31] + r[31] <= 0
 mccormick2[32]: - x[32] + r[32] <= 0
 mccormick2[33]: - x[33] + r[33] <= 0
 mccormick2[34]: - x[34] + r[34] <= 0
 mccormick2[35]: - x[35] + r[35] <= 0
 mccormick2[36]: - x[36] + r[36] <= 0
 mccormick2[37]: - x[37] + r[37] <= 0
 mccormick2[38]: - x[38] + r[38] <= 0
 mccormick2[39]: - x[39] + r[39] <= 0
 mccormick2[40]: - x[40] + r[40] <= 0
 mccormick2[41]: - x[41] + r[41] <= 0
 mccormick2[42]: - x[42] + r[42] <= 0
 mccormick2[43]: - x[43] + r[43] <= 0
 mccormick2[44]: - x[44] + r[44] <= 0
 mccormick2[45]: - x[45] + r[45] <= 0
 mccormick2[46]: - x[46] + r[46] <= 0
 mccormick2[47]: - x[47] + r[47] <= 0
 mccormick2[48]: - x[48] + r[48] <= 0
 mccormick2[49]: - x[49] + r[49] <= 0
 mccormick2[50]: - x[50] + r[50] <= 0
 mccormick2[51]: - x[51] + r[51] <= 0
 mccormick2[52]: - x[52] + r[52] <= 0
 mccormick2[53]: - x[53] + r[53] <= 0
 mccormick2[54]: - x[54] + r[54] <= 0
 mccormick2[55]: - x[55] + r[55] <= 0
 mccormick2[56]: - x[56] + r[56] <= 0
 mccormick2[57]: - x[57] + r[57] <= 0
 mccormick2[58]: - x[58] + r[58] <= 0
 mccormick2[59]: - x[59] + r[59] <= 0
 mccormick2[60]: - x[60] + r[60] <= 0
 mccormick2[61]: - x[61] + r[61] <= 0
 mccormick2[62]: - x[62] + r[62] <= 0
 mccormick2[63]: - x[63] + r[63] <= 0
 mccormick2[64]: - x[64] + r[64] <= 0
 mccormick2[65]: - x[65] + r[65] <= 0
 mccormick2[66]: - x[66] + r[66] <= 0
 mccormick2[67]: - x[67] + r[67] <= 0
 mccormick2[68]: - x[68] + r[68] <= 0
 mccormick2[69]: - x[69] + r[69] <= 0
 mccormick2[70]: - x[70] + r[70] <= 0
 mccormick2[71]: - x[71] + r[71] <= 0
 mccormick2[72]: - x[72] + r[72] <= 0
 mccormick2[73]: - x[73] + r[73] <= 0
 mccormick2[74]: - x[74] + r[74] <= 0
 mccormick2[75]: - x[75] + r[75] <= 0
 mccormick2[76]: - x[76] + r[76] <= 0
 mccormick2[77]: - x[77] + r[77] <= 0
 mccormick2[78]: - x[78] + r[78] <= 0
 mccormick2[79]: - x[79] + r[79] <= 0
 mccormick2[80]: - x[80] + r[80] <= 0
 mccormick2[81]: - x[81] + r[81] <= 0
 mccormick2[82]: - x[82] + r[82] <= 0
 mccormick2[83]: - x[83] + r[83] <= 0
 mccormick2[84]: - x[84] + r[84] <= 0
 mccormick2[85]: - x[85] + r[85] <= 0
 mccormick2[86]: - x[86] + r[86] <= 0
 mccormick2[87]: - x[87] + r[87] <= 0
 mccormick2[88]: - x[88] + r[88] <= 0
 mccormick2[89]: - x[89] + r[89] <= 0
 mccormick3[0]: x[0] + u[0] - r[0] <= 1
 mccormick3[1]: x[1] + u[1] - r[1] <= 1
 mccormick3[2]: x[2] + u[2] - r[2] <= 1
 mccormick3[3]: x[3] + u[3] - r[3] <= 1
 mccormick3[4]: x[4] + u[4] - r[4] <= 1
 mccormick3[5]: x[5] + u[5] - r[5] <= 1
 mccormick3[6]: x[6] + u[6] - r[6] <= 1
 mccormick3[7]: x[7] + u[7] - r[7] <= 1
 mccormick3[8]: x[8] + u[8] - r[8] <= 1
 mccormick3[9]: x[9] + u[9] - r[9] <= 1
 mccormick3[10]: x[10] + u[10] - r[10] <= 1
 mccormick3[11]: x[11] + u[11] - r[11] <= 1
 mccormick3[12]: x[12] + u[12] - r[12] <= 1
 mccormick3[13]: x[13] + u[13] - r[13] <= 1
 mccormick3[14]: x[14] + u[14] - r[14] <= 1
 mccormick3[15]: x[15] + u[15] - r[15] <= 1
 mccormick3[16]: x[16] + u[16] - r[16] <= 1
 mccormick3[17]: x[17] + u[17] - r[17] <= 1
 mccormick3[18]: x[18] + u[18] - r[18] <= 1
 mccormick3[19]: x[19] + u[19] - r[19] <= 1
 mccormick3[20]: x[20] + u[20] - r[20] <= 1
 mccormick3[21]: x[21] + u[21] - r[21] <= 1
 mccormick3[22]: x[22] + u[22] - r[22] <= 1
 mccormick3[23]: x[23] + u[23] - r[23] <= 1
 mccormick3[24]: x[24] + u[24] - r[24] <= 1
 mccormick3[25]: x[25] + u[25] - r[25] <= 1
 mccormick3[26]: x[26] + u[26] - r[26] <= 1
 mccormick3[27]: x[27] + u[27] - r[27] <= 1
 mccormick3[28]: x[28] + u[28] - r[28] <= 1
 mccormick3[29]: x[29] + u[29] - r[29] <= 1
 mccormick3[30]: x[30] + u[30] - r[30] <= 1
 mccormick3[31]: x[31] + u[31] - r[31] <= 1
 mccormick3[32]: x[32] + u[32] - r[32] <= 1
 mccormick3[33]: x[33] + u[33] - r[33] <= 1
 mccormick3[34]: x[34] + u[34] - r[34] <= 1
 mccormick3[35]: x[35] + u[35] - r[35] <= 1
 mccormick3[36]: x[36] + u[36] - r[36] <= 1
 mccormick3[37]: x[37] + u[37] - r[37] <= 1
 mccormick3[38]: x[38] + u[38] - r[38] <= 1
 mccormick3[39]: x[39] + u[39] - r[39] <= 1
 mccormick3[40]: x[40] + u[40] - r[40] <= 1
 mccormick3[41]: x[41] + u[41] - r[41] <= 1
 mccormick3[42]: x[42] + u[42] - r[42] <= 1
 mccormick3[43]: x[43] + u[43] - r[43] <= 1
 mccormick3[44]: x[44] + u[44] - r[44] <= 1
 mccormick3[45]: x[45] + u[45] - r[45] <= 1
 mccormick3[46]: x[46] + u[46] - r[46] <= 1
 mccormick3[47]: x[47] + u[47] - r[47] <= 1
 mccormick3[48]: x[48] + u[48] - r[48] <= 1
 mccormick3[49]: x[49] + u[49] - r[49] <= 1
 mccormick3[50]: x[50] + u[50] - r[50] <= 1
 mccormick3[51]: x[51] + u[51] - r[51] <= 1
 mccormick3[52]: x[52] + u[52] - r[52] <= 1
 mccormick3[53]: x[53] + u[53] - r[53] <= 1
 mccormick3[54]: x[54] + u[54] - r[54] <= 1
 mccormick3[55]: x[55] + u[55] - r[55] <= 1
 mccormick3[56]: x[56] + u[56] - r[56] <= 1
 mccormick3[57]: x[57] + u[57] - r[57] <= 1
 mccormick3[58]: x[58] + u[58] - r[58] <= 1
 mccormick3[59]: x[59] + u[59] - r[59] <= 1
 mccormick3[60]: x[60] + u[60] - r[60] <= 1
 mccormick3[61]: x[61] + u[61] - r[61] <= 1
 mccormick3[62]: x[62] + u[62] - r[62] <= 1
 mccormick3[63]: x[63] + u[63] - r[63] <= 1
 mccormick3[64]: x[64] + u[64] - r[64] <= 1
 mccormick3[65]: x[65] + u[65] - r[65] <= 1
 mccormick3[66]: x[66] + u[66] - r[66] <= 1
 mccormick3[67]: x[67] + u[67] - r[67] <= 1
 mccormick3[68]: x[68] + u[68] - r[68] <= 1
 mccormick3[69]: x[69] + u[69] - r[69] <= 1
 mccormick3[70]: x[70] + u[70] - r[70] <= 1
 mccormick3[71]: x[71] + u[71] - r[71] <= 1
 mccormick3[72]: x[72] + u[72] - r[72] <= 1
 mccormick3[73]: x[73] + u[73] - r[73] <= 1
 mccormick3[74]: x[74] + u[74] - r[74] <= 1
 mccormick3[75]: x[75] + u[75] - r[75] <= 1
 mccormick3[76]: x[76] + u[76] - r[76] <= 1
 mccormick3[77]: x[77] + u[77] - r[77] <= 1
 mccormick3[78]: x[78] + u[78] - r[78] <= 1
 mccormick3[79]: x[79] + u[79] - r[79] <= 1
 mccormick3[80]: x[80] + u[80] - r[80] <= 1
 mccormick3[81]: x[81] + u[81] - r[81] <= 1
 mccormick3[82]: x[82] + u[82] - r[82] <= 1
 mccormick3[83]: x[83] + u[83] - r[83] <= 1
 mccormick3[84]: x[84] + u[84] - r[84] <= 1
 mccormick3[85]: x[85] + u[85] - r[85] <= 1
 mccormick3[86]: x[86] + u[86] - r[86] <= 1
 mccormick3[87]: x[87] + u[87] - r[87] <= 1
 mccormick3[88]: x[88] + u[88] - r[88] <= 1
 mccormick3[89]: x[89] + u[89] - r[89] <= 1
Bounds
Binaries
 x[0] x[1] x[2] x[3] x[4] x[5] x[6] x[7] x[8] x[9] x[10] x[11] x[12] x[13]
 x[14] x[15] x[16] x[17] x[18] x[19] x[20] x[21] x[22] x[23] x[24] x[25]
 x[26] x[27] x[28] x[29] x[30] x[31] x[32] x[33] x[34] x[35] x[36] x[37]
 x[38] x[39] x[40] x[41] x[42] x[43] x[44] x[45] x[46] x[47] x[48] x[49]
 x[50] x[51] x[52] x[53] x[54] x[55] x[56] x[57] x[58] x[59] x[60] x[61]
 x[62] x[63] x[64] x[65] x[66] x[67] x[68] x[69] x[70] x[71] x[72] x[73]
 x[74] x[75] x[76] x[77] x[78] x[79] x[80] x[81] x[82] x[83] x[84] x[85]
 x[86] x[87] x[88] x[89] u[0] u[1] u[2] u[3] u[4] u[5] u[6] u[7] u[8] u[9]
 u[10] u[11] u[12] u[13] u[14] u[15] u[16] u[17] u[18] u[19] u[20] u[21]
 u[22] u[23] u[24] u[25] u[26] u[27] u[28] u[29] u[30] u[31] u[32] u[33]
 u[34] u[35] u[36] u[37] u[38] u[39] u[40] u[41] u[42] u[43] u[44] u[45]
 u[46] u[47] u[48] u[49] u[50] u[51] u[52] u[53] u[54] u[55] u[56] u[57]
 u[58] u[59] u[60] u[61] u[62] u[63] u[64] u[65] u[66] u[67] u[68] u[69]
 u[70] u[71] u[72] u[73] u[74] u[75] u[76] u[77] u[78] u[79] u[80] u[81]
 u[82] u[83] u[84] u[85] u[86] u[87] u[88] u[89] r[0] r[1] r[2] r[3] r[4]
 r[5] r[6] r[7] r[8] r[9] r[10] r[11] r[12] r[13] r[14] r[15] r[16] r[17]
 r[18] r[19] r[20] r[21] r[22] r[23] r[24] r[25] r[26] r[27] r[28] r[29]
 r[30] r[31] r[32] r[33] r[34] r[35] r[36] r[37] r[38] r[39] r[40] r[41]
 r[42] r[43] r[44] r[45] r[46] r[47] r[48] r[49] r[50] r[51] r[52] r[53]
 r[54] r[55] r[56] r[57] r[58] r[59] r[60] r[61] r[62] r[63] r[64] r[65]
 r[66] r[67] r[68] r[69] r[70] r[71] r[72] r[73] r[74] r[75] r[76] r[77]
 r[78] r[79] r[80] r[81] r[82] r[83] r[84] r[85] r[86] r[87] r[88] r[89]
End
