instances/knapsack/discrete/knapsack_90_10.kp
59769
90
427

89 8.9 62
54 5.4 90
100 10.0 12
53 5.3 64
70 7.0 29
19 1.9 81
47 4.7 1
93 9.3 79
79 7.9 78
4 0.4 94
5 0.5 27
1 0.1 91
82 8.2 19
70 7.0 50
26 2.6 39
90 9.0 48
11 1.1 74
26 2.6 38
35 3.5 62
60 6.0 93
79 7.9 37
9 0.9 83
66 6.6 100
76 7.6 68
78 7.8 73
30 3.0 2
52 5.2 44
33 3.3 83
87 8.7 50
21 2.1 80
11 1.1 69
97 9.7 68
61 6.1 64
87 8.7 15
34 3.4 43
15 1.5 21
14 1.4 77
2 0.2 39
58 5.8 34
100 10.0 51
81 8.1 88
55 5.5 65
36 3.6 69
3 0.3 43
69 6.9 54
48 4.8 99
47 4.7 56
79 7.9 96
21 2.1 48
62 6.2 57
8 0.8 35
42 4.2 2
91 9.1 31
10 1.0 29
98 9.8 16
53 5.3 54
67 6.7 18
72 7.2 40
34 3.4 28
52 5.2 75
90 9.0 72
88 8.8 18
25 2.5 53
8 0.8 21
13 1.3 42
10 1.0 33
18 1.8 57
44 4.4 61
10 1.0 88
83 8.3 45
11 1.1 5
91 9.1 55
36 3.6 65
69 6.9 77
61 6.1 74
18 1.8 2
12 1.2 58
41 4.1 5
94 9.4 96
84 8.4 11
23 2.3 95
79 7.9 42
4 0.4 65
59 5.9 14
71 7.1 93
83 8.3 56
77 7.7 14
62 6.2 59
64 6.4 60
5 0.5 82

85062
437

[1.5605008478262095 0.7519619545934632 1.6996181297418866 1.6464570126673685 3.8324407567365726 1.9852119368897159 1.2079601944215037 2.5511182569355233 0.03179830138892416 4.73264442720954 1.5051659765158376 2.64720055551604 1.1847611638423947 2.5040422774617612 1.7226525163041133 3.940186742169731 2.8531494005152043 1.717898663665625 2.1285009123772327 4.7144943848284475 1.5329422502933587 0.3746157627960765 3.6765760285526623 1.8667410407793006 2.137212633203362 0.35987748081195786 2.2087213742507923 1.7978798716817581 2.9681847948947566 1.6034253631253081 3.334389036072764 0.25364113628084556 0.6119686185709134 4.5320502441214785 0.4088527549897065 3.721722597323708 3.470317945553059 0.3573676258027987 3.5516038585887686 2.4393589745481115 3.34289921291716 3.6019765795790946 0.14499676109380158 0.08194477728822042 2.77129242913067 0.11378261870697197 2.889682882876509 0.014344594368977068 2.6136224088340683 4.434179112798891 4.199960198801421 0.17731948201236886 4.6818761064515115 1.94128201202649 4.07093964720515 3.941423550681682 4.56318876798359 3.0709075817772717 1.4861238663577185 0.40197690445757445 2.1135135508651106 0.24532407594928266 2.589829790075482 1.378013778429007 1.2038076811099 1.7702431869535125 2.016099253447124 2.5995709072007354 2.7867957693525285 3.5400799911547876 1.776702431555013 3.012767842702624 2.2244611767139153 2.9197127791682105 0.6763477770435365 1.0189635619705508 2.5312465054315094 0.39305988382576507 3.873466057575213 2.0190000034021254 0.8498530625914368 2.5194001824664896 3.4624686907543074 2.6516490914863877 1.3124931869328569 1.2337564243496322 0.16790395885340992 0.8874355422210725 0.22679787748545607 2.987318349882695]

[10 78 36 69 82 52 19 70 87 64 58 97 18 94 35 23 59 46 75 48 75 78 50 69 63 82 60 18 16 65 96 58 62 19 62 19 70 43 46 1 49 64 36 48 41 81 8 60 53 10 85 2 83 70 47 50 59 13 58 52 19 93 30 81 70 90 75 17 50 56 44 32 8 21 98 87 65 1 87 17 80 48 25 44 36 44 38 6 28 65]
